\ Model Nori&Leets Dual
\ LP format - for model browsing. Use MPS format to capture full model detail.
Maximize
  60 C0 + 150 C1 + 125 C2
Subject To
 R0: 12 C0 + 35 C1 + 37 C2 <= 8
 R1: 9 C0 + 42 C1 + 53 C2 <= 10
 R2: 25 C0 + 18 C1 + 28 C2 <= 7
 R3: 20 C0 + 31 C1 + 24 C2 <= 6
 R4: 17 C0 + 56 C1 + 29 C2 <= 11
 R5: 13 C0 + 49 C1 + 20 C2 <= 9
Bounds
End
